28626
0 0 0 0 1 0 1 0 0 0 1 0 0 1 1 0 0 1 1 0 0 0 0 1 1 1 1 0 1 1 
18 6 24 24 23 6 10 28 18 28 4 28 10 13 28 18 13 10 18 24 18 24 23 24 10 18 18 17 29 23 6 26 4 24 28 6 10 13 24 18 18 26 6 26 13 4 13 23 14 14 24 24 24 24 10 6 18 26 18 25 29 17 18 13 13 25 23 14 28 25 18 6 6 14 23 23 10 10 10 24 10 17 26 25 29 13 6 23 18 25 28 6 25 25 17 13 28 6 17 28 28 23 25 18 4 17 4 24 18 13 14 4 28 6 6 13 28 25 17 13 26 25 17 6 26 24 23 25 26 17 28 24 25 10 13 14 13 13 28 10 6 18 28 25 25 23 24 24 18 25 24 17 23 17 13 28 23 24 13 13 13 28 10 17 23 28 23 4 13 24 13 13 14 14 26 17 17 10 29 10 23 24 23 6 25 26 28 23 17 17 24 24 6 4 25 6 25 24 10 6 
